
memory 8 gb

molecule test {
 O          0.00000       0.00000        0.00000
symmetry c1
}

set basis aug-cc-pvdz
set reference uhf
set print 10
h_energy = energy('scf')
